30
Properties=species:S:1:pos:R:3 seed_id=wdbase_w10_00000 lineage_root_id=wdbase_w10_00000 geometry_family_id=wdbase_w10_00000 split=train source="UW water cluster minima / TTM2.1-F" source_url=https://sites.uw.edu/wdbase/files/2019/01/W10_geoms_5.0_KCal-1wc8q03.txt source_frame=0 raw_file=raw/w10_geoms_5kcal.txt coordinate_sha256=6a7915761da8f60657b19fc1bd22bfdb6478bba19b1ce42ae05da0fbdd4f9721 network_id=88342164118a1b1601daecd2b61c88ec parent_id= trajectory_id= scan_id= rng_seed=20260913 training_descriptor_distance=0.0 pbc="F F F"
O        0.20283087      -2.68968855      -1.13125438
H        0.98319872      -2.10573424      -1.11657066
H        0.46690329      -3.49112097      -1.57410736
O        2.07755049      -0.38406269       1.95550614
H        2.73531966      -0.37078277       2.64640885
H        1.80281027       0.53640707       1.81317025
O        2.28573378      -0.99860016      -0.85636014
H        2.10640582      -0.11202792      -1.20326633
H        2.38130625      -0.88235644       0.09583121
O       -1.37876836       1.98308428       0.73407584
H       -1.39524786       1.99911078      -0.23186273
H       -1.84306852       1.17697390       0.99363451
O       -2.54542057      -0.54416875       1.26786929
H       -1.75102464      -1.07091366       1.46958333
H       -3.24510423      -0.87665788       1.82307988
O       -0.26912586      -1.97496888       1.59043484
H       -0.11677877      -2.35192074       0.71380644
H        0.52731331      -1.47375642       1.80477028
O       -1.20527021       1.66208132      -2.08626623
H       -1.67807237       1.99626835      -2.84336538
H       -1.47531454       0.73290022      -1.97407455
O       -1.94960014      -0.88127450      -1.51738710
H       -1.24415103      -1.54024519      -1.48151369
H       -2.29398433      -0.81463651      -0.61784572
O        1.21844538       2.19611700       1.41661244
H        0.26265105       2.14043625       1.23340445
H        1.38102492       3.07146128       1.75761013
O        1.57518443       1.62116297      -1.43805427
H        1.54822215       1.92787393      -0.52471656
H        0.66411265       1.67248829      -1.75509567
30
Properties=species:S:1:pos:R:3 seed_id=wdbase_w10_00493 lineage_root_id=wdbase_w10_00493 geometry_family_id=wdbase_w10_00493 split=train source="UW water cluster minima / TTM2.1-F" source_url=https://sites.uw.edu/wdbase/files/2019/01/W10_geoms_5.0_KCal-1wc8q03.txt source_frame=493 raw_file=raw/w10_geoms_5kcal.txt coordinate_sha256=29390adeb5adc45979d2ad226bf830f04660fd096a04ade9d0f0bb13f2cca0b7 network_id=f421137dc678e13d6a00db84d5c10a70 parent_id= trajectory_id= scan_id= rng_seed=20260913 training_descriptor_distance=0.0 pbc="F F F"
O        1.21302485      -1.73690309      -2.60570032
H        0.44777059      -1.13254192      -2.58497507
H        1.50543642      -1.78239509      -3.51172048
O       -0.92422772      -0.12624516      -2.25316149
H       -0.58329034       0.63526712      -1.75995404
H       -1.50086195      -0.59624626      -1.64031870
O        1.46085739      -1.44780903       1.45954269
H        1.13669586      -2.19414493       0.94560450
H        1.96657777      -0.91065850       0.83014136
O       -1.30529953       2.53045855       2.83826226
H       -1.17096842       1.63037262       2.50065201
H       -1.38551039       2.44440851       3.78470724
O       -2.07477250      -1.75831517      -0.14922730
H       -2.85891951      -2.30140742      -0.11982108
H       -1.31927485      -2.36151083      -0.23542065
O       -0.43657327       4.11060033       0.72232621
H       -0.01125479       4.90329299       1.03930848
H       -0.77628994       3.65597997       1.51094263
O        0.25877881      -3.27533784      -0.51370752
H        0.53435659      -4.18618788      -0.58253456
H        0.65851760      -2.80479815      -1.26437992
O       -0.81055892       0.07297335       1.64259988
H        0.01508713      -0.42686035       1.74019175
H       -1.40202773      -0.48653801       1.12694281
O        2.48625397       0.05664954      -0.65382004
H        2.23130488      -0.52237388      -1.38008732
H        1.81918072       0.75769100      -0.63923812
O        0.18310213       1.69459615      -0.47492862
H       -0.13792801       1.15212593       0.25846521
H        0.02850890       2.61128555      -0.21191866
30
Properties=species:S:1:pos:R:3 seed_id=wdbase_w10_01088 lineage_root_id=wdbase_w10_01088 geometry_family_id=wdbase_w10_01088 split=train source="UW water cluster minima / TTM2.1-F" source_url=https://sites.uw.edu/wdbase/files/2019/01/W10_geoms_5.0_KCal-1wc8q03.txt source_frame=1088 raw_file=raw/w10_geoms_5kcal.txt coordinate_sha256=a880dc92b4d9f489e8a718a06c154928b208b7c57646ae7d3be12dd834a9727a network_id=1e2d36c6efc7fe754825c7ecc09b39fb parent_id= trajectory_id= scan_id= rng_seed=20260913 training_descriptor_distance=0.0 pbc="F F F"
O       -0.09824365      -1.97934190       2.15655324
H       -0.53587025      -2.52881209       2.80148933
H       -0.79635304      -1.49633555       1.68081615
O       -3.97446459       0.93396898      -0.24328616
H       -3.34631747       1.40665527      -0.81278613
H       -4.83257836       1.04893633      -0.64285233
O        1.77569694       0.19368096       2.20856140
H        2.42533100      -0.09245161       1.55556724
H        1.19551283      -0.56796412       2.34041784
O       -1.79067391      -0.53451971       0.57267091
H       -2.65519541      -0.13193516       0.41266010
H       -1.36312264      -0.63257174      -0.29052093
O       -0.00465530       1.69272705       0.72571323
H       -0.70512742       1.02678867       0.74141262
H        0.65012723       1.36421200       1.36129043
O        1.73299510       1.37791963      -1.37338164
H        1.14158756       1.56375881      -0.62274888
H        1.79447085       2.18188282      -1.88321402
O       -0.31366437      -0.58755187      -1.84071841
H        0.10839564      -1.38706879      -1.48854806
H        0.39892441       0.06293507      -1.86502113
O        1.12173778      -2.46933595      -0.41086748
H        0.74634439      -2.47910146       0.47828577
H        1.94734711      -1.97531859      -0.33152797
O       -1.77222937       1.94389292      -1.63277080
H       -1.22596425       2.18877741      -0.87661912
H       -1.42089671       1.09453007      -1.93003979
O        3.28642991      -0.58382610      -0.13736608
H        4.20810021      -0.57327394      -0.38418581
H        2.85368285       0.12294718      -0.64239266
30
Properties=species:S:1:pos:R:3 seed_id=wdbase_w10_00824 lineage_root_id=wdbase_w10_00824 geometry_family_id=wdbase_w10_00824 split=train source="UW water cluster minima / TTM2.1-F" source_url=https://sites.uw.edu/wdbase/files/2019/01/W10_geoms_5.0_KCal-1wc8q03.txt source_frame=824 raw_file=raw/w10_geoms_5kcal.txt coordinate_sha256=d726521bc621e947ae1fe2a378980f1a62f6329b518a79924b2c23282155367a network_id=cb015366e2ea839893aa1fb94d81c0c7 parent_id= trajectory_id= scan_id= rng_seed=20260913 training_descriptor_distance=0.0 pbc="F F F"
O        1.17045130       0.91434245       1.82521670
H        0.52798470       0.74805694       2.53137748
H        0.77675540       1.58478837       1.25608413
O       -2.22355405      -1.61905189      -0.40762700
H       -3.10819331      -1.86321206      -0.66591568
H       -2.11021176      -0.68320079      -0.65053303
O        0.01926431       2.79317288       0.00875466
H       -0.10747138       3.72820597       0.14819543
H        0.68096740       2.70092659      -0.69814737
O       -0.76145545       0.12726836       3.65679305
H       -0.89129630      -0.69334073       3.15151065
H       -0.94508353      -0.09417768       4.56572049
O        1.79798130       2.26916413      -2.00737823
H        2.71859650       2.02364783      -1.94664926
H        1.35904610       1.54735427      -2.48447902
O       -0.85661689      -2.09937282       2.03620737
H        0.04954160      -2.07585139       1.70495789
H       -1.41582766      -1.97194905       1.25901644
O       -1.69680396       0.90961175      -1.28027610
H       -1.24685469       1.56850295      -0.73725284
H       -1.10543624       0.74520450      -2.02470387
O        1.75495540      -1.56168218       0.90976040
H        1.59872250      -0.64734693       1.20918076
H        2.57482730      -1.84310432       1.30614441
O        0.39363490      -1.93379970      -1.51741860
H        0.95115480      -1.84853931      -0.73203010
H       -0.51138964      -1.99953885      -1.18709895
O        0.37202650       0.18746667      -3.18050296
H        0.23888690      -0.11414332      -4.07486160
H        0.44329370      -0.60784526      -2.62141378
30
Properties=species:S:1:pos:R:3 seed_id=wdbase_w10_01135 lineage_root_id=wdbase_w10_01135 geometry_family_id=wdbase_w10_01135 split=train source="UW water cluster minima / TTM2.1-F" source_url=https://sites.uw.edu/wdbase/files/2019/01/W10_geoms_5.0_KCal-1wc8q03.txt source_frame=1135 raw_file=raw/w10_geoms_5kcal.txt coordinate_sha256=725609c8d2d595dcc5ce41789b8bebf58d1c7d2b78c8d0a8dea47f70db3b386e network_id=f617c73a3e45f5423dbe43a62f01859f parent_id= trajectory_id= scan_id= rng_seed=20260913 training_descriptor_distance=0.0 pbc="F F F"
O       -0.14000937      -1.04307873       1.85176627
H        0.21937493      -1.68208534       1.22123734
H       -1.07659813      -0.96074421       1.63569418
O        1.16075972       0.86988323      -1.48074182
H        0.51235191       0.15685814      -1.56251820
H        0.97379307       1.27727383      -0.62201794
O        0.95181290      -2.73063523      -0.17877468
H        1.25531486      -3.63397843      -0.17424234
H        1.74556950      -2.16650302      -0.22426447
O       -1.42454573       1.50034445      -2.48788294
H       -0.47594186       1.66146820      -2.40488847
H       -1.49150129       0.53648823      -2.46803292
O       -0.94874784      -1.16534884      -1.55847653
H       -0.32880016      -1.83336479      -1.23691734
H       -1.57514068      -1.03109486      -0.83606371
O        2.96073273      -0.93018848      -0.20538696
H        2.97936902      -0.55645544       0.68652932
H        2.56345499      -0.25231201      -0.76763567
O        2.43679289       0.18534248       2.35158173
H        2.06938708       1.04231136       2.11142794
H        1.65906504      -0.36977942       2.49275128
O        0.25957040       1.68901318       1.04582707
H        0.14205889       0.77164905       1.33400217
H       -0.61988016       2.00820606       0.81767622
O       -2.40729805       2.16364448      -0.02401909
H       -2.89336058       2.98390549      -0.01854643
H       -2.11149546       2.01542442      -0.93969544
O       -2.67781922      -0.51599152       0.66387240
H       -3.58491942      -0.77188093       0.81343857
H       -2.68016049       0.43979567       0.49497238
30
Properties=species:S:1:pos:R:3 seed_id=wdbase_w10_01202 lineage_root_id=wdbase_w10_01202 geometry_family_id=wdbase_w10_01202 split=train source="UW water cluster minima / TTM2.1-F" source_url=https://sites.uw.edu/wdbase/files/2019/01/W10_geoms_5.0_KCal-1wc8q03.txt source_frame=1202 raw_file=raw/w10_geoms_5kcal.txt coordinate_sha256=c4fc6af5cd73bc888501472ca82a01a2140e14e97200c2899bdb9ca462461c90 network_id=df4f5934445bb27a39c3168fda9d965d parent_id= trajectory_id= scan_id= rng_seed=20260913 training_descriptor_distance=0.0 pbc="F F F"
O        0.51689584       1.18514055       1.47753545
H        1.07379610       1.78726238       0.96124401
H        1.01957232       0.86638469       2.23925035
O       -2.29421222      -1.22520620      -0.04715855
H       -2.38225752      -0.28252250       0.14325558
H       -1.36396211      -1.42314559       0.12331532
O       -0.32082122       1.95158547      -1.86832459
H       -1.01875561       1.84221524      -1.21086581
H       -0.14734810       1.07201833      -2.22617967
O        0.55948669      -1.25871354       0.07749789
H        0.58480937      -1.11267644      -0.87552483
H        0.58473856      -0.38725930       0.49926524
O       -2.27144599      -1.74792319      -2.72647793
H       -2.41034376      -1.61028319      -1.77308304
H       -3.12063585      -1.98078471      -3.08993013
O        1.80385239      -2.50976878       2.20606415
H        1.40516979      -3.35866433       2.38149398
H        1.39195806      -2.18647987       1.38798835
O        1.77985365       2.81686407      -0.32321794
H        1.08605391       2.58985037      -0.96645732
H        2.15162308       3.64430595      -0.61513574
O        1.97170479      -0.04635221       3.46672576
H        2.80780775       0.05156011       3.91520207
H        1.96220238      -0.95193273       3.11553829
O        0.24524672      -0.72933322      -2.70237834
H       -0.64304512      -1.11277991      -2.81082184
H        0.75680787      -0.99733668      -3.46110256
O       -1.99672293       1.55572957       0.46452295
H       -2.49233552       2.21912319       0.93756129
H       -1.14804726       1.45776338       0.93153729
30
Properties=species:S:1:pos:R:3 seed_id=wdbase_w10_00238 lineage_root_id=wdbase_w10_00238 geometry_family_id=wdbase_w10_00238 split=train source="UW water cluster minima / TTM2.1-F" source_url=https://sites.uw.edu/wdbase/files/2019/01/W10_geoms_5.0_KCal-1wc8q03.txt source_frame=238 raw_file=raw/w10_geoms_5kcal.txt coordinate_sha256=4a431f9c48283596795c94d080c7e42597550cdfe0b6b2078250ea8b06acd430 network_id=7fa79a28c4db6093847fc4d20726b334 parent_id= trajectory_id= scan_id= rng_seed=20260913 training_descriptor_distance=0.0 pbc="F F F"
O       -2.94746041       0.56395621      -0.61456845
H       -3.78862416       0.75357480      -1.02169274
H       -3.10270929       0.51968594       0.34515764
O        0.31539036      -2.29004567       1.00197293
H        0.27523208      -3.22989886       1.15537562
H       -0.25329708      -2.10525935       0.23258116
O        0.93928219      -0.00053399      -2.27893542
H        1.76195694      -0.05238216      -2.77520464
H        1.23819853      -0.14514010      -1.36750601
O        2.27259327      -0.43792932       0.16748764
H        1.73465467      -1.15776365       0.52271404
H        2.00870109       0.36328621       0.63947024
O       -0.49192642       1.99914758      -0.88175152
H       -1.37053346       1.60827978      -0.79681109
H       -0.03230070       1.46853752      -1.54590319
O       -1.13589453      -1.56818025      -1.17544149
H       -0.50658249      -1.13271396      -1.76556681
H       -1.82711744      -0.91624348      -1.00374053
O       -3.19235968       0.40610237       2.07964419
H       -2.27520990       0.22005172       2.34603189
H       -3.69780587       0.45693488       2.88562237
O        3.76537205      -0.36703174      -2.29141329
H        4.45230652      -1.02704709      -2.35387276
H        3.43801475      -0.42155640      -1.38097261
O        1.07055307       1.83227132       1.33043374
H        0.49127699       1.97713581       0.56036248
H        1.39027143       2.68864216       1.60044922
O       -0.57391428      -0.10958808       2.61594635
H       -0.27807974      -0.91315048       2.17031492
H       -0.00175451       0.59793622       2.29322922
30
Properties=species:S:1:pos:R:3 seed_id=wdbase_w10_01040 lineage_root_id=wdbase_w10_01040 geometry_family_id=wdbase_w10_01040 split=train source="UW water cluster minima / TTM2.1-F" source_url=https://sites.uw.edu/wdbase/files/2019/01/W10_geoms_5.0_KCal-1wc8q03.txt source_frame=1040 raw_file=raw/w10_geoms_5kcal.txt coordinate_sha256=649bda35aaf5d1cb1f5e86dad6ac3730f72bf8a46af6271255b3e59749971296 network_id=fb87bfa5b65d6f294d77f630da2af34f parent_id= trajectory_id= scan_id= rng_seed=20260913 training_descriptor_distance=0.0 pbc="F F F"
O        3.26241605       2.24099973       0.06604094
H        2.40307061       2.51588885       0.42376226
H        3.82312409       2.08705333       0.82325620
O        1.24023025      -1.32240888      -0.03350585
H        1.69100015      -0.77590295      -0.68911344
H        0.58080165      -1.82859441      -0.52305120
O       -2.19855292      -0.14886972      -1.14314523
H       -1.79982527      -0.99811479      -1.36601524
H       -1.53722747       0.52873973      -1.34806481
O        2.40807645       0.51640013      -1.88325199
H        2.98752610       0.50092486      -2.64029199
H        2.80270402       1.13244776      -1.24230610
O       -0.94588836      -2.73489448      -1.23873383
H       -1.23776277      -2.93841048      -0.33333438
H       -1.06885894      -3.52994367      -1.75040954
O       -0.18865045       1.72744611      -1.57024048
H        0.63961474       1.30526212      -1.82831305
H        0.01528136       2.19837836      -0.75403684
O       -1.64722188      -2.97880098       1.40995330
H       -2.09826787      -2.12881109       1.52900070
H       -0.90797265      -2.96354696       2.01682395
O        0.69689004       2.77219692       0.99705667
H        0.25703589       3.43820605       1.51744598
H        0.46025292       1.90693907       1.37993592
O       -2.70242174      -0.38643380       1.48429173
H       -2.59271915      -0.24409410       0.52491445
H       -3.54405101      -0.01119062       1.72559661
O        0.04608695       0.31305293       1.87666148
H        0.48257653      -0.28439065       1.24951500
H       -0.89544900       0.10998467       1.83819479
30
Properties=species:S:1:pos:R:3 seed_id=wdbase_w10_00395 lineage_root_id=wdbase_w10_00395 geometry_family_id=wdbase_w10_00395 split=train source="UW water cluster minima / TTM2.1-F" source_url=https://sites.uw.edu/wdbase/files/2019/01/W10_geoms_5.0_KCal-1wc8q03.txt source_frame=395 raw_file=raw/w10_geoms_5kcal.txt coordinate_sha256=4247755dc1ce89daa2011ea3360b4086f46edcedd3f3d995b18043e522628a48 network_id=8ea499510055f269f9855a8a6ab5cc50 parent_id= trajectory_id= scan_id= rng_seed=20260913 training_descriptor_distance=0.0 pbc="F F F"
O       -3.50010720      -0.24046969       0.03252405
H       -2.77156655      -0.22197842      -0.60786492
H       -3.74026207       0.67367626       0.17240256
O       -1.85187761      -1.69614052       1.78549999
H       -2.54293410      -1.23516726       1.28951114
H       -1.35083929      -2.19577860       1.12954920
O       -1.10729662      -0.25765585      -1.40375704
H       -0.47919050       0.12205172      -2.02967033
H       -0.74950949      -1.10927748      -1.11536819
O       -0.44845263       1.66551424       0.61162084
H       -0.74041430       0.98716498      -0.01155645
H       -0.27830712       1.20309568       1.44135302
O       -0.10780493      -2.64156079      -0.30190116
H        0.65067085      -2.26271891       0.17971486
H        0.14036259      -3.52384781      -0.56212825
O        0.01240000      -0.02376437       2.82857555
H       -0.69389740      -0.63402199       2.54732460
H       -0.01095024       0.00196243       3.78094619
O        2.86432346       0.46488977      -0.78546757
H        2.41301378       0.28597928      -1.61696428
H        2.61437019       1.37543941      -0.58843511
O        1.83707365      -1.37498164       1.06319445
H        2.27958950      -0.73517203       0.48778218
H        1.36775717      -0.86926293       1.73738760
O        0.89476713       1.06295491      -2.90092486
H        1.05830749       1.81273175      -2.30542049
H        1.03291448       1.38570548      -3.78807908
O        1.38300546       2.94673205      -0.87934762
H        1.46862110       3.86851540      -0.65578109
H        0.71270498       2.57052243      -0.27856845
30
Properties=species:S:1:pos:R:3 seed_id=wdbase_w10_00009 lineage_root_id=wdbase_w10_00009 geometry_family_id=wdbase_w10_00009 split=train source="UW water cluster minima / TTM2.1-F" source_url=https://sites.uw.edu/wdbase/files/2019/01/W10_geoms_5.0_KCal-1wc8q03.txt source_frame=9 raw_file=raw/w10_geoms_5kcal.txt coordinate_sha256=d33cd2cfc2287a5f7c225bde25019abf3a78b905f98c7f23cae44fb459b7aab3 network_id=306d6b8a53e0f18e1ad5c9be90c47daf parent_id= trajectory_id= scan_id= rng_seed=20260913 training_descriptor_distance=0.0 pbc="F F F"
O       -2.64460952       1.19043939       1.37252889
H       -3.57378084       1.13392108       1.57547365
H       -2.31977136       0.27365046       1.34610020
O       -1.62507159      -1.32904072       1.28524433
H       -0.77292592      -1.37327725       1.73730217
H       -1.48603398      -1.72553466       0.41661964
O        1.00434106      -1.30773269       2.36377369
H        1.24439519      -0.38417633       2.16737877
H        1.36974996      -1.51075816       3.22019134
O        0.23308366       1.65503662      -1.80709352
H        1.10753244       1.29491417      -1.61185946
H       -0.06280333       2.08826368      -0.99727072
O        2.67105381       0.44697564      -0.98588719
H        2.34757131      -0.45704229      -0.82076897
H        3.53373141       0.36239021      -1.38190235
O       -1.38561255      -0.24658389      -2.88343777
H       -0.82432038       0.46267836      -2.52480353
H       -1.86158950       0.13901227      -3.61316528
O       -0.99957044      -2.39950897      -1.28734221
H       -1.16758067      -1.65051913      -1.88610973
H       -1.36182649      -3.17486496      -1.70754589
O        1.64532369      -1.98123650      -0.33171238
H        1.48930638      -1.89830075       0.61804424
H        0.78656381      -2.18962540      -0.72103609
O       -0.54006822       2.76008360       0.71013962
H       -0.74365813       3.66795771       0.91821085
H       -1.32219607       2.23361104       0.95270525
O        1.67569440       1.20347278       1.57674442
H        2.13390248       1.04976552       0.74027811
H        0.93512815       1.78641479       1.36648928
30
Properties=species:S:1:pos:R:3 seed_id=wdbase_w10_01093 lineage_root_id=wdbase_w10_01093 geometry_family_id=wdbase_w10_01093 split=train source="UW water cluster minima / TTM2.1-F" source_url=https://sites.uw.edu/wdbase/files/2019/01/W10_geoms_5.0_KCal-1wc8q03.txt source_frame=1093 raw_file=raw/w10_geoms_5kcal.txt coordinate_sha256=a9c2181204e8aa6f8e4171bc8c8257484e96cb39b516d80ed1c5ea0031c86366 network_id=c0221b75ccae7fdf8610cf2a237b02cb parent_id= trajectory_id= scan_id= rng_seed=20260913 training_descriptor_distance=0.0 pbc="F F F"
O        3.30847691      -1.60635471       0.77798645
H        2.75727223      -1.08602431       1.38920205
H        3.88174008      -2.14326571       1.31738085
O       -3.27849294      -1.30420201      -0.35268695
H       -4.05414606      -1.85410971      -0.42216975
H       -3.59186937      -0.39952181      -0.17846585
O        2.81854962       0.44065759      -1.13625145
H        3.32512568      -0.12942981      -0.54306415
H        2.06846665      -0.11567591      -1.38106825
O       -1.06468261       1.67268949      -0.24632645
H       -1.01997245       1.10542209      -1.03326225
H       -0.17944587       2.00453859      -0.05714425
O        0.91946505      -1.70203111      -0.87358955
H        1.74697684      -1.90943241      -0.42382915
H        0.30315923      -1.46545881      -0.16562375
O        1.59390138       2.28265189       0.45699215
H        2.07570027       3.10359859       0.51442335
H        2.08280133       1.71232699      -0.16203125
O       -1.18292756      -0.33000181      -2.15629675
H       -0.43206335      -0.90559101      -1.95776275
H       -1.94387445      -0.75134371      -1.73727805
O        1.59700345      -0.03014941       2.23372555
H        0.70933865      -0.38121791       2.08069795
H        1.61037372       0.83217049       1.80091945
O       -0.89870943      -0.79444601       1.14437485
H       -1.71650378      -1.20233441       0.83718965
H       -0.93536366       0.10753829       0.79325865
O       -3.78252174       1.35291959       0.11013695
H       -2.85583509       1.63290409       0.02747345
H       -4.30902744       2.13483239      -0.03324895
30
Properties=species:S:1:pos:R:3 seed_id=wdbase_w10_00690 lineage_root_id=wdbase_w10_00690 geometry_family_id=wdbase_w10_00690 split=train source="UW water cluster minima / TTM2.1-F" source_url=https://sites.uw.edu/wdbase/files/2019/01/W10_geoms_5.0_KCal-1wc8q03.txt source_frame=690 raw_file=raw/w10_geoms_5kcal.txt coordinate_sha256=bd8151c7188f328ca59befdb2a4f52b2fd8a65dac6b9e6cb4a52197d61236029 network_id=5a947edc502feb04d887485a9eff58db parent_id= trajectory_id= scan_id= rng_seed=20260913 training_descriptor_distance=0.0 pbc="F F F"
O        0.74454116       1.85616977      -1.01946320
H        0.10042523       1.24610097      -1.41095747
H        1.54442738       1.34381540      -0.85989727
O       -3.02910138      -0.28250902       0.20717560
H       -3.95995928      -0.47346418       0.12650381
H       -2.94870235       0.43655855       0.85600410
O        1.17794083       0.01658971       1.91080938
H        0.72443293       0.86636383       1.91183935
H        0.50968980      -0.65176575       1.69383322
O        2.59521626      -1.69801059      -2.07018246
H        2.77989720      -1.05179989      -1.37029566
H        2.95052384      -1.32309496      -2.87303890
O       -2.61250259       1.68117101       2.06216751
H       -2.64590408       1.61983616       3.01427398
H       -1.74475719       2.06016691       1.85023104
O        0.06386327      -2.60603588      -1.58198799
H       -0.07212449      -3.45433371      -1.99595250
H        0.98322486      -2.35120102      -1.76728477
O       -0.73289443      -1.80402739       1.05313383
H       -1.56369497      -1.36152910       0.84159694
H       -0.42593099      -2.17380837       0.21574055
O       -1.11744834       0.00154180      -1.91103305
H       -1.83247520      -0.02618652      -1.26283516
H       -0.74676467      -0.88917260      -1.91282620
O       -0.07685901       2.60524471       1.43997560
H        0.17386245       2.39347656       0.52217613
H        0.32289027       3.44675977       1.64231716
O        2.96851777       0.21162374      -0.09927763
H        3.78260472       0.55255015       0.26116787
H        2.36556195       0.08026774       0.65521084
30
Properties=species:S:1:pos:R:3 seed_id=wdbase_w10_00350 lineage_root_id=wdbase_w10_00350 geometry_family_id=wdbase_w10_00350 split=train source="UW water cluster minima / TTM2.1-F" source_url=https://sites.uw.edu/wdbase/files/2019/01/W10_geoms_5.0_KCal-1wc8q03.txt source_frame=350 raw_file=raw/w10_geoms_5kcal.txt coordinate_sha256=cf4122b200c16682b7543c0b83bf352df3b3f30746f94fadef9c1e8792eabec1 network_id=017d3859fe49c7f9aaf9064fe827fcee parent_id= trajectory_id= scan_id= rng_seed=20260913 training_descriptor_distance=0.0 pbc="F F F"
O       -2.48749486       1.93714605       2.03263714
H       -3.40636364       2.17702447       2.12436582
H       -2.41802874       1.47921954       1.18174125
O        0.24994501      -3.05351402      -1.06269215
H       -0.18639627      -2.40975048      -1.64847897
H        0.05876622      -3.91911759      -1.41287468
O       -0.81644169      -1.49584836       1.08066894
H       -0.04985824      -0.95687927       1.31859924
H       -0.48743454      -2.17074926       0.47481682
O        2.40071329      -1.23149289      -0.65565346
H        1.78396401      -1.97168387      -0.72904728
H        2.19089636      -0.78246708       0.17465402
O        1.69177708       0.44146369      -2.65325926
H        2.32080683       0.45397006      -3.36888693
H        2.03729424      -0.17501856      -1.98054956
O       -0.17677417       1.38944207       3.49730493
H       -1.00074306       1.61247168       3.03491213
H       -0.44268385       1.00687919       4.33030414
O       -0.82610002      -1.00367935      -2.53437637
H       -1.35914913      -0.46858771      -1.93259428
H       -0.04493681      -0.47606195      -2.73939107
O        0.52574047       2.04269181      -0.73040817
H        0.68129429       2.97862683      -0.83140801
H        0.96349320       1.59708820      -1.47332142
O        1.33064446       0.35046790       1.43669273
H        1.11411700       0.99310551       0.74900867
H        0.93876633       0.70249782       2.24955084
O       -1.89071098       0.58361326      -0.36000870
H       -1.11330429       1.14331446      -0.49260710
H       -1.60111108      -0.18360664       0.16323091
30
Properties=species:S:1:pos:R:3 seed_id=wdbase_w10_00219 lineage_root_id=wdbase_w10_00219 geometry_family_id=wdbase_w10_00219 split=train source="UW water cluster minima / TTM2.1-F" source_url=https://sites.uw.edu/wdbase/files/2019/01/W10_geoms_5.0_KCal-1wc8q03.txt source_frame=219 raw_file=raw/w10_geoms_5kcal.txt coordinate_sha256=00ad3a45abecc58c1f481d97f53dfb76c4c73c45029ace86c89285e8e13e3df8 network_id=495de90c234c966887537034090009b8 parent_id= trajectory_id= scan_id= rng_seed=20260913 training_descriptor_distance=0.0 pbc="F F F"
O        2.28863405       0.06331648       1.56187140
H        2.29500173       0.45513977       0.66909682
H        3.09347891       0.34054483       1.99023043
O        1.37477754      -2.32205092       0.32832991
H        1.09391378      -1.95549952      -0.51643957
H        1.81295370      -1.59435259       0.79153143
O       -1.19064261       1.80310644      -1.76308550
H       -1.63035942       1.68470920      -0.91006578
H       -0.82797838       0.93964971      -1.98307813
O       -2.07944990      -1.44530259      -0.43023790
H       -2.35590388      -0.58916413      -0.07785524
H       -1.81814409      -1.97162710       0.33644329
O       -0.87365366      -2.70058237       1.81647526
H       -0.89627053      -3.52636216       2.29168831
H       -0.03802420      -2.68544935       1.31609379
O        1.06517099       3.38074697      -1.65206231
H        0.20057367       2.94005026      -1.70990146
H        1.04045509       4.09189094      -2.28668274
O       -0.45292116       0.09388698       2.35433756
H       -0.63678719      -0.85368787       2.33750664
H        0.48707794       0.18186439       2.15213143
O        0.08813595      -0.90765773      -1.96585835
H        0.01523327      -1.35128199      -2.80790318
H       -0.70680548      -1.14172851      -1.45248903
O       -2.35912420       1.14080538       0.72646652
H       -3.02087284       1.58312000       1.25095068
H       -1.65831972       0.85661091       1.34021364
O        2.14875864       0.92053140      -0.98329080
H        1.88944696       1.82630552      -1.20694746
H        1.50760053       0.34389604      -1.41255869
30
Properties=species:S:1:pos:R:3 seed_id=wdbase_w10_00666 lineage_root_id=wdbase_w10_00666 geometry_family_id=wdbase_w10_00666 split=train source="UW water cluster minima / TTM2.1-F" source_url=https://sites.uw.edu/wdbase/files/2019/01/W10_geoms_5.0_KCal-1wc8q03.txt source_frame=666 raw_file=raw/w10_geoms_5kcal.txt coordinate_sha256=25b60fadf51b24e9a594fdba8e6ba8dd35c382ecadb410751bf04af4b01e8bd0 network_id=6052bb1090626695b48ed43743019567 parent_id= trajectory_id= scan_id= rng_seed=20260913 training_descriptor_distance=0.0 pbc="F F F"
O       -1.22443837       0.24967900       1.98964035
H       -0.38628596       0.55536547       2.35528862
H       -1.40310496       0.80831328       1.22146665
O       -3.01787752       0.07746592      -1.98170841
H       -2.45553083      -0.71683512      -1.94047773
H       -3.67562837      -0.09749374      -2.64791799
O       -1.31004256      -2.00551710      -1.72739184
H       -0.45686454      -1.79895363      -2.13425577
H       -1.13472671      -2.19260320      -0.79758776
O        1.12783891       0.99660959      -0.95273460
H        0.19724780       1.22513952      -0.82880819
H        1.63083392       1.64600887      -0.44280804
O       -0.80851811      -2.29495892       1.07414925
H       -1.04417914      -1.41920242       1.42858469
H       -1.24331302      -2.93981752       1.62570679
O        1.75724488      -1.09388838       0.89536774
H        1.57759982      -0.46620045       0.18178141
H        0.98434525      -1.67202816       0.93073570
O        1.16829902      -1.14833603      -2.71615351
H        1.22016746      -0.32139025      -2.21148074
H        2.03027326      -1.55218992      -2.63999808
O       -1.55839986       1.71909847      -0.41449798
H       -1.85065669       2.62172499      -0.51108111
H       -2.12890691       1.17422190      -0.98519433
O        1.51272708       0.78727904       2.83779632
H        1.80938512       0.49551048       3.69562876
H        1.68339520       0.05572500       2.21609079
O        2.31748086       2.67423525       0.91164982
H        3.15056115       3.07645979       1.14589655
H        2.06179124       2.12667074       1.66982138
30
Properties=species:S:1:pos:R:3 seed_id=wdbase_w10_01032 lineage_root_id=wdbase_w10_01032 geometry_family_id=wdbase_w10_01032 split=train source="UW water cluster minima / TTM2.1-F" source_url=https://sites.uw.edu/wdbase/files/2019/01/W10_geoms_5.0_KCal-1wc8q03.txt source_frame=1032 raw_file=raw/w10_geoms_5kcal.txt coordinate_sha256=e81ac06c99e3b6cb02507a88f43c13a79e6f57a1ac2955b2c2703d9c3f15fd5e network_id=d4557fafd70d5a3b29c51317105b047f parent_id= trajectory_id= scan_id= rng_seed=20260913 training_descriptor_distance=0.0 pbc="F F F"
O        2.33292427       0.19666469      -0.32886865
H        2.65201035      -0.36305534       0.38561318
H        1.80272427       0.86209381       0.13049338
O       -0.74669704       3.60013283       0.42614052
H       -1.40541801       3.08246220      -0.06050327
H       -0.61253748       4.39727680      -0.08120516
O        0.61143437       1.45465553       1.55283997
H       -0.07041988       0.81954468       1.28779623
H        0.26698199       2.31777847       1.29106447
O        2.18231240      -0.62156450       2.53710053
H        1.68664685       0.19012583       2.33741209
H        2.68142929      -0.44109881       3.32977459
O        0.28931132      -1.03902208      -1.71836546
H        1.08161679      -0.62137615      -1.34912470
H        0.34510413      -1.98443901      -1.51901796
O        0.10022774      -2.42086422       1.76692364
H       -0.55764255      -1.76048243       1.51468632
H        0.85222378      -1.92065394       2.10912440
O       -2.56004247       1.88949478      -0.92671921
H       -3.49307713       1.96101749      -1.11156514
H       -2.14076624       1.53242386      -1.72981122
O       -1.29882774       0.74653185      -3.04753282
H       -0.71463499       0.06806648      -2.66830006
H       -1.05063352       0.82574451      -3.96449631
O       -1.31059036      -0.28355372       0.48934195
H       -0.79827795      -0.60487997      -0.26793697
H       -1.90407667       0.38907946       0.13812992
O        0.44831648      -3.58235252      -0.70586302
H        0.35888281      -3.28430903       0.21537134
H        0.25215044      -4.51494324      -0.70170572
30
Properties=species:S:1:pos:R:3 seed_id=wdbase_w10_00317 lineage_root_id=wdbase_w10_00317 geometry_family_id=wdbase_w10_00317 split=train source="UW water cluster minima / TTM2.1-F" source_url=https://sites.uw.edu/wdbase/files/2019/01/W10_geoms_5.0_KCal-1wc8q03.txt source_frame=317 raw_file=raw/w10_geoms_5kcal.txt coordinate_sha256=e34a2af30f22414ec2d597dcaa7fa9a5201e15d58920d47ea57b475e0c3ac281 network_id=a2616b2510237cb5c1d60acc4895362e parent_id= trajectory_id= scan_id= rng_seed=20260913 training_descriptor_distance=0.0 pbc="F F F"
O        0.21398887       2.05588120       1.38681902
H        0.48577536       2.87117308       1.80141176
H        0.87418399       1.85634583       0.70382752
O       -2.00722309      -1.38416559       0.50084604
H       -2.69711324      -2.04284257       0.52637400
H       -1.37415024      -1.66906649      -0.17753349
O        2.01229874       1.40928191      -0.62726436
H        2.76852278       1.82931298      -1.02795397
H        1.42323701       1.13821572      -1.35644613
O       -0.10454532      -2.12389451      -1.38095079
H        0.73363111      -1.94614250      -0.91400181
H        0.04714287      -2.88401407      -1.93598352
O       -0.31539943      -0.46506602       2.63099589
H       -0.13248970       0.42809361       2.31338658
H       -0.93758067      -0.84090859       1.99648108
O        2.15759675      -1.44287807      -0.10067354
H        2.25442056      -0.48910552      -0.19488607
H        2.21604661      -1.63445503       0.84713902
O        2.05690781      -1.83488232       2.62476458
H        2.23687271      -2.23680395       3.46963133
H        1.20702354      -1.37200529       2.72151198
O       -2.07359429       1.84113282      -2.60719906
H       -2.75065704       2.42925948      -2.92879067
H       -2.22451993       1.75314253      -1.65043484
O        0.33666028       0.50857085      -2.52493010
H        0.09638392      -0.39146644      -2.27971087
H       -0.49345895       0.98920268      -2.66043745
O       -2.27375742       1.43492096       0.09450497
H       -1.48565324       1.74861163       0.55435909
H       -2.29416843       0.48089188       0.24105848
30
Properties=species:S:1:pos:R:3 seed_id=wdbase_w10_01077 lineage_root_id=wdbase_w10_01077 geometry_family_id=wdbase_w10_01077 split=train source="UW water cluster minima / TTM2.1-F" source_url=https://sites.uw.edu/wdbase/files/2019/01/W10_geoms_5.0_KCal-1wc8q03.txt source_frame=1077 raw_file=raw/w10_geoms_5kcal.txt coordinate_sha256=9b991d1f0457a20b3eec710d5a549bf770717c83b4f56d02384917f202fefadf network_id=de293c39143943cda66e47d5446ad21d parent_id= trajectory_id= scan_id= rng_seed=20260913 training_descriptor_distance=0.0 pbc="F F F"
O        0.16416036       0.88559750      -2.24412899
H       -0.44593037       0.31397564      -1.75143294
H       -0.37264861       1.37338245      -2.86492328
O        1.09141456      -1.74128693       2.01809146
H        1.70469343      -1.06789988       1.67848393
H        1.59255658      -2.28901737       2.61750396
O        0.99631320       2.07049627       0.19980605
H        0.14486324       2.23658103       0.62836178
H        0.78029977       1.81157667      -0.70429806
O       -3.14894735       1.46138579      -1.07708864
H       -2.73429872       0.58537409      -1.09956507
H       -4.06649955       1.32104504      -1.30035572
O        2.74277173       0.20599473       0.98781945
H        2.12983285       0.92907202       0.75563659
H        3.57319413       0.61385465       1.21715652
O        2.33700095      -0.90185004      -1.69939117
H        1.71536981      -0.25531965      -2.05850868
H        2.62047588      -0.53901976      -0.85232143
O       -1.55754877      -0.81898361      -0.80904846
H       -0.96921433      -1.58021610      -0.92302804
H       -1.60379769      -0.68116336       0.14607962
O        0.43921672      -2.69846910      -0.70535426
H        1.14744817      -2.22406071      -1.16662626
H        0.63958131      -2.58879130       0.22991927
O       -1.58633197       2.17339379       1.21517917
H       -1.58905865       1.30793098       1.64129741
H       -2.18188591       2.09205706       0.45816179
O       -1.44755543      -0.59317189       2.02609321
H       -2.00528587      -1.05737787       2.64632984
H       -0.56369628      -0.98617070       2.09921851
30
Properties=species:S:1:pos:R:3 seed_id=wdbase_w10_00591 lineage_root_id=wdbase_w10_00591 geometry_family_id=wdbase_w10_00591 split=train source="UW water cluster minima / TTM2.1-F" source_url=https://sites.uw.edu/wdbase/files/2019/01/W10_geoms_5.0_KCal-1wc8q03.txt source_frame=591 raw_file=raw/w10_geoms_5kcal.txt coordinate_sha256=5537ea7bbf8388aa30dc151d4cf660f9507e444b81ad66d64fb3245fb4863b81 network_id=951b546a49f4d4fa7ee14bbd1abf3fc7 parent_id= trajectory_id= scan_id= rng_seed=20260913 training_descriptor_distance=0.0 pbc="F F F"
O        0.40867152       0.89688830      -2.80301187
H        0.38533296       1.80584722      -2.45556257
H        0.30802979       0.96516992      -3.74886248
O       -1.09540401      -0.39050533      -0.81316874
H       -0.69627819       0.07425480      -1.56089375
H       -0.74747978      -1.29207845      -0.83577130
O       -0.02715574      -3.31286533       1.84211328
H        0.28437843      -3.86265285       2.55596426
H       -0.22867093      -2.44838030       2.23895147
O        1.18706634       0.39771047       0.83321741
H        0.36615982       0.18179204       0.36840179
H        1.87076249       0.05874364       0.24278572
O       -2.41943965       0.77804621       1.29521730
H       -2.07762990       0.34105614       0.49594143
H       -3.37031827       0.77478837       1.22193601
O        2.32042928      -0.82775779      -1.39587900
H        1.80524029      -0.23966421      -1.96235130
H        1.75445475      -1.59489663      -1.24311993
O        0.22352542       3.37665002      -1.70805905
H       -0.01574407       3.23365037      -0.77654192
H        0.58862223       4.25620024      -1.75276778
O       -0.33089695       2.74646323       0.89494302
H        0.37711801       2.09650676       1.00892093
H       -1.14037834       2.27687483       1.12669971
O        0.26849260      -2.84384353      -0.81777975
H        0.20288076      -3.06295927       0.12834671
H        0.13476076      -3.65857942      -1.29500649
O       -0.46285901      -0.77499504       2.76380518
H       -1.23595367      -0.27359141       2.48025015
H        0.28510537      -0.35888065       2.31201246
30
Properties=species:S:1:pos:R:3 seed_id=wdbase_w10_01026 lineage_root_id=wdbase_w10_01026 geometry_family_id=wdbase_w10_01026 split=train source="UW water cluster minima / TTM2.1-F" source_url=https://sites.uw.edu/wdbase/files/2019/01/W10_geoms_5.0_KCal-1wc8q03.txt source_frame=1026 raw_file=raw/w10_geoms_5kcal.txt coordinate_sha256=4148a1e1cff62f5acbe204b95fd5211d8d9f2f873be9075b298b35b879bcc588 network_id=7a62721773b4685f21ac303cfaf20afc parent_id= trajectory_id= scan_id= rng_seed=20260913 training_descriptor_distance=0.0 pbc="F F F"
O       -1.08176087      -1.13995276       0.25343337
H       -1.66783642      -0.68951843      -0.36969648
H       -1.53669428      -1.13851945       1.10857262
O        2.98668672       0.92284750       0.29485907
H        3.82795287       1.35163210       0.42860474
H        3.06549836       0.02654551       0.66392674
O        1.87196924      -0.14232529      -2.17585431
H        1.62786580      -1.00566148      -1.82365285
H        2.35293199       0.29209279      -1.46047865
O        0.23328687       1.43710850       0.74046244
H        1.19466306       1.37568091       0.68582358
H       -0.09801291       0.53547357       0.63024582
O       -2.68227540       0.50719272      -1.38599334
H       -3.33779685       0.49700128      -2.07723699
H       -1.88855098       0.93585418      -1.75591622
O        1.04782010      -2.51613273      -0.68988262
H        0.75900747      -3.32669808      -1.10048829
H        0.25112344      -2.07061793      -0.34995542
O       -2.53712236       1.76798318       1.24481883
H       -1.58100079       1.91018055       1.20865836
H       -2.77804302       1.47298192       0.35788216
O       -2.47805642      -0.66157712       2.56115927
H       -2.59606181       0.24337469       2.22513976
H       -3.02125465      -0.72695945       3.34121289
O       -0.31354140       1.60338973      -2.05320917
H        0.40355350       1.00805377      -2.31254683
H       -0.12090920       1.81782125      -1.13111196
O        2.95267106      -1.67211903       1.16079153
H        2.81674863      -2.13056709       1.98674168
H        2.33193351      -2.06716753       0.52859082
30
Properties=species:S:1:pos:R:3 seed_id=wdbase_w10_00336 lineage_root_id=wdbase_w10_00336 geometry_family_id=wdbase_w10_00336 split=validation source="UW water cluster minima / TTM2.1-F" source_url=https://sites.uw.edu/wdbase/files/2019/01/W10_geoms_5.0_KCal-1wc8q03.txt source_frame=336 raw_file=raw/w10_geoms_5kcal.txt coordinate_sha256=5f868f1396e7c20ee876ebd03f33abacba21b810ade53cb508770bf7e2518cc5 network_id=fcd88c2206517e126a856cc1a4daacbe parent_id= trajectory_id= scan_id= rng_seed=20260913 training_descriptor_distance=0.026149368659798986 pbc="F F F"
O       -1.06191843      -2.62455005      -2.47340564
H       -1.53103369      -2.79137916      -3.28726100
H       -1.00970905      -1.66057605      -2.39182142
O        2.30827076       2.19291502       0.12898273
H        2.87289984       2.96051984       0.11956043
H        1.43593389       2.47691827      -0.20247560
O        1.97883160      -0.31322069      -0.98248869
H        2.22659332       0.55552226      -0.62756985
H        2.73759348      -0.65375871      -1.45013838
O       -1.92941516      -0.22975320       0.52979989
H       -1.16394012      -0.71362323       0.86854858
H       -1.94718593       0.60541277       1.01251049
O       -0.20452469       2.71433180      -0.72613090
H       -0.74125402       2.67706709       0.07707257
H       -0.49145096       1.97580796      -1.27686506
O        0.56358654      -1.46725816       1.20010490
H        0.24495155      -2.33882446       0.92304129
H        1.10708076      -1.14756412       0.46810669
O        0.92025883       1.05210929       2.42679209
H        0.82960398       0.11985832       2.18334813
H        1.53079493       1.43613523       1.78691287
O       -0.70496862       0.10507541      -1.89952796
H        0.21986134      -0.05041141      -1.66501408
H       -1.22539537      -0.01284952      -1.08598905
O       -0.47856443      -3.73009319       0.02058405
H       -0.68977802      -3.40175981      -0.86827581
H       -1.21060722      -4.28892822       0.27100510
O       -1.43863814       2.27707153       1.80507082
H       -1.83049648       2.74973499       2.53395361
H       -0.61717957       1.87366324       2.13866133
30
Properties=species:S:1:pos:R:3 seed_id=wdbase_w10_00209 lineage_root_id=wdbase_w10_00209 geometry_family_id=wdbase_w10_00209 split=validation source="UW water cluster minima / TTM2.1-F" source_url=https://sites.uw.edu/wdbase/files/2019/01/W10_geoms_5.0_KCal-1wc8q03.txt source_frame=209 raw_file=raw/w10_geoms_5kcal.txt coordinate_sha256=b85d692d598a898393601c12ef8fe7bca0b3ce7df911e08fe3b097d0684836e5 network_id=153b41de204c610b553fae4ee4e7fabc parent_id= trajectory_id= scan_id= rng_seed=20260913 training_descriptor_distance=0.03754014311938943 pbc="F F F"
O       -0.55963089      -0.75108492      -2.54675601
H       -1.46631100      -1.06230247      -2.40426049
H       -0.54559900       0.15866649      -2.23704562
O        2.24519632       0.80013407      -0.92349932
H        2.15186069      -0.13982403      -1.12686822
H        2.56500624       0.84069383      -0.01303146
O       -0.24325325       1.87266720      -1.06783912
H       -0.22298767       2.66835535      -1.59468768
H        0.66737030       1.52585686      -1.04454420
O        1.06888197      -1.55195200       1.49270203
H        1.73081301      -0.87594521       1.68457606
H        1.19031427      -1.78479039       0.56355193
O        2.68178604       0.80108631       1.87538340
H        1.85050295       1.30144728       1.95983841
H        3.28562115       1.15702331       2.52110913
O        1.53005646      -1.92832267      -1.29524205
H        0.75162409      -1.60147011      -1.78122113
H        1.88409326      -2.65479243      -1.80056522
O        0.21884487       1.98199165       1.86281874
H       -0.00769999       2.12228239       0.93743374
H       -0.35724976       1.26462496       2.16154768
O       -3.16122498      -1.36272347      -1.85037539
H       -3.06563451      -0.71702301      -1.12929771
H       -4.07774713      -1.33226382      -2.11104987
O       -1.23049452      -0.40442908       2.37348845
H       -0.45422747      -0.89946902       2.05568507
H       -1.55449297      -0.86438191       3.14286473
O       -2.56695225       0.52360380       0.05830862
H       -1.84938719       1.03840101      -0.32822487
H       -2.20937349       0.15694225       0.87767174
30
Properties=species:S:1:pos:R:3 seed_id=wdbase_w10_00479 lineage_root_id=wdbase_w10_00479 geometry_family_id=wdbase_w10_00479 split=validation source="UW water cluster minima / TTM2.1-F" source_url=https://sites.uw.edu/wdbase/files/2019/01/W10_geoms_5.0_KCal-1wc8q03.txt source_frame=479 raw_file=raw/w10_geoms_5kcal.txt coordinate_sha256=030fd95d2bc4f355234316b22bf1e34d770d4bb814fd91efd5f28dd4e3572931 network_id=d77f0b7c371fcc1180f9122003742cdb parent_id= trajectory_id= scan_id= rng_seed=20260913 training_descriptor_distance=0.03927463712295448 pbc="F F F"
O        0.18677072       2.08677445       0.53531721
H       -0.52065154       1.61784766       1.01818367
H        0.15934686       2.99729169       0.81978127
O       -0.00219603      -0.60574474      -2.76438275
H        0.70730142      -0.02351417      -2.43726960
H        0.17946271      -0.77113094      -3.68584839
O        1.79130872       0.09009729       2.04213556
H        1.09039432      -0.55379381       2.21463617
H        1.34548692       0.85864220       1.67060920
O       -3.82219668       0.54152594       0.03758007
H       -4.65811320       0.91700039      -0.22597589
H       -3.18542786       0.79693518      -0.65118862
O       -0.35167476      -1.78351536       2.02061471
H       -0.09516116      -2.00151958       1.10683974
H       -0.57554980      -2.60594883       2.44719466
O       -1.70640822       0.69272719       1.81785377
H       -1.37263795      -0.20316806       1.95079717
H       -2.52681227       0.61099634       1.31017288
O       -1.76945897       1.30909047      -1.64055673
H       -1.28820201       0.60918746      -2.10085777
H       -1.13188239       1.69800208      -1.03413663
O        1.86121202       0.95822630      -1.53822044
H        1.36532622       1.40645728      -0.84186897
H        2.44293522       0.33079872      -1.08866683
O        3.17386182      -1.03884640      -0.01069111
H        2.78797942      -0.64852228       0.79404696
H        4.06029442      -1.30969086       0.21102639
O        0.60215120      -2.24683561      -0.48679469
H        0.27010183      -1.79996528      -1.27462343
H        1.52720382      -1.98144951      -0.40689611
30
Properties=species:S:1:pos:R:3 seed_id=wdbase_w10_00001 lineage_root_id=wdbase_w10_00001 geometry_family_id=wdbase_w10_00001 split=test_id source="UW water cluster minima / TTM2.1-F" source_url=https://sites.uw.edu/wdbase/files/2019/01/W10_geoms_5.0_KCal-1wc8q03.txt source_frame=1 raw_file=raw/w10_geoms_5kcal.txt coordinate_sha256=be9113bd3be7da3ad7a8184457cf48e68da7a88fae287c0682623670e1dc566e network_id=a8187fe504553e937f45d6709d2aaf20 parent_id= trajectory_id= scan_id= rng_seed=20260913 training_descriptor_distance=0.04223238298125055 pbc="F F F"
O       -2.31060000      -0.53358286       1.67533516
H       -2.97088785      -0.99491637       2.18522476
H       -1.55838032      -1.14525177       1.57386898
O       -0.22887488      -2.19215821       1.21894907
H        0.65628462      -1.84354665       1.38624214
H       -0.25558300      -2.40594606       0.27736496
O        2.31272821      -0.97905974       1.42854761
H        2.06903677      -0.03582006       1.43847584
H        3.07859355      -1.07203822       1.98814224
O       -1.14141483       2.04629666      -1.30899168
H       -0.19651432       2.01929290      -1.50668598
H       -1.20229550       2.18915970      -0.35679985
O        1.68267088       1.79647166      -1.60518909
H        1.81852751       0.83237512      -1.63054920
H        2.29141931       2.17654640      -2.23245598
O       -2.26230736      -0.48558085      -1.24593855
H       -1.92167158       0.40707309      -1.40912462
H       -2.47134085      -0.51210993      -0.30628277
O       -0.37782259      -2.38769447      -1.62318922
H       -1.07676573      -1.71004377      -1.57733799
H       -0.67895765      -3.05322640      -2.23521138
O        2.01953344      -0.89310925      -1.42453362
H        2.23725252      -1.02837871      -0.49373413
H        1.23607187      -1.43248952      -1.59302498
O       -1.24281283       2.02617819       1.58532738
H       -1.74313851       2.60996539       2.15034460
H       -1.64552755       1.14643032       1.66484140
O        1.55192118       1.61687309       1.23311066
H        1.65760355       1.81500704       0.29315924
H        0.62832098       1.80564243       1.44018005
30
Properties=species:S:1:pos:R:3 seed_id=wdbase_w10_00077 lineage_root_id=wdbase_w10_00077 geometry_family_id=wdbase_w10_00077 split=test_id source="UW water cluster minima / TTM2.1-F" source_url=https://sites.uw.edu/wdbase/files/2019/01/W10_geoms_5.0_KCal-1wc8q03.txt source_frame=77 raw_file=raw/w10_geoms_5kcal.txt coordinate_sha256=70a7f57c05aa9b4cbdd128ca53db35ea223ec0fb4ce3de88f05f399b1bd041c0 network_id=5673fbcb2147788a515b7fbe34e720ec parent_id= trajectory_id= scan_id= rng_seed=20260913 training_descriptor_distance=0.04269472241722044 pbc="F F F"
O        2.82876337      -0.33675250       0.02780323
H        3.77831398      -0.33184012      -0.06616087
H        2.51391447       0.53675858      -0.25527211
O        0.91363656      -2.30104878      -0.81841107
H        0.44883621      -2.48496156       0.00897197
H        1.62809598      -1.69442733      -0.59070178
O       -0.65107596       1.56320897      -2.20385738
H        0.21242750       1.66183606      -1.79050751
H       -0.76587308       0.61500636      -2.35796423
O       -2.05808747       1.64605895       0.22116785
H       -1.71760523       1.74817888      -0.67865296
H       -2.34452260       0.72381750       0.28345708
O       -0.50323975      -2.42224612       1.64567499
H       -0.58862507      -3.03257947       2.37302856
H        0.01435649      -1.66578319       1.97288112
O       -2.51722920      -1.09192964       0.08273010
H       -2.14581120      -1.18284889      -0.80363579
H       -1.92798817      -1.59039988       0.66178445
O        1.73392427       2.14336053      -0.54317637
H        1.16930616       2.27213517       0.23729209
H        2.01003015       3.01168147      -0.82784911
O       -1.02970231      -1.24745711      -2.40440746
H       -1.21669972      -1.82000365      -3.14368363
H       -0.30040848      -1.65885260      -1.90860100
O        0.06873929       2.31418124       1.66590099
H       -0.75608552       2.08286420       1.19632892
H       -0.15848315       2.96866838       2.31984310
O        1.06827342      -0.29239186       2.29716186
H        0.69032800       0.58974615       2.19526557
H        1.77377355      -0.35193690       1.64102392
30
Properties=species:S:1:pos:R:3 seed_id=wdbase_w10_00097 lineage_root_id=wdbase_w10_00097 geometry_family_id=wdbase_w10_00097 split=test_id source="UW water cluster minima / TTM2.1-F" source_url=https://sites.uw.edu/wdbase/files/2019/01/W10_geoms_5.0_KCal-1wc8q03.txt source_frame=97 raw_file=raw/w10_geoms_5kcal.txt coordinate_sha256=010279b6f0ff3a9891901ee2ae8544087af7bdff11051a479022afc97b303787 network_id=d2202af45687e7115e91fb4b22215c24 parent_id= trajectory_id= scan_id= rng_seed=20260913 training_descriptor_distance=0.04558093586397466 pbc="F F F"
O       -2.68086436      -0.62518395       0.34058412
H       -2.38171866      -0.56753625      -0.58034555
H       -3.62562587      -0.75803317       0.31649813
O        2.28808162      -0.24361266      -1.61822740
H        1.81180713      -1.07262505      -1.50901786
H        2.43289325       0.10422479      -0.72426644
O       -0.48606255      -2.25751151       1.20127758
H       -1.31891301      -1.80844535       1.00969681
H       -0.09105065      -2.43707456       0.33879837
O        2.34564445       0.94072400       0.90178188
H        1.77886245       1.70022451       0.71995052
H        1.90353725       0.45138274       1.60586437
O       -1.63504364      -0.53871621      -2.24876133
H       -2.08040335      -0.47846450      -3.08918897
H       -1.02297499       0.22163974      -2.20084158
O       -1.22964623       1.33054124       1.88130173
H       -1.79734280       0.72671996       1.38828501
H       -0.58221485       0.77318965       2.33397468
O        0.75372884      -0.46949710       2.83546671
H        0.37499616      -1.18135013       2.29018911
H        1.00609348      -0.86350573       3.66600450
O        0.34230087      -2.44001426      -1.50802628
H        0.43175981      -3.13961996      -2.15160290
H       -0.34098580      -1.83961762      -1.84278670
O        0.13595436       1.42862474      -2.08041850
H        0.96117065       0.92070924      -2.03569165
H        0.16271398       2.04503022      -1.33915249
O        0.31638858       2.93308984       0.31486114
H        0.27861545       3.84219612       0.59908089
H       -0.28967192       2.43332921       0.88965591
30
Properties=species:S:1:pos:R:3 seed_id=wdbase_w10_00514 lineage_root_id=wdbase_w10_00514 geometry_family_id=wdbase_w10_00514 split=test_trajectory source="UW water cluster minima / TTM2.1-F" source_url=https://sites.uw.edu/wdbase/files/2019/01/W10_geoms_5.0_KCal-1wc8q03.txt source_frame=514 raw_file=raw/w10_geoms_5kcal.txt coordinate_sha256=609bb63cdd367be5335d7d60cfced01f6675407bbef71b598855e515dc4cccfd network_id=e345fe1c7bc9732a8c1bed5f0db772a7 parent_id= trajectory_id= scan_id= rng_seed=20260913 training_descriptor_distance=0.1464283170387208 pbc="F F F"
O       -0.74438569      -1.19187649      -2.00220818
H       -1.31188176      -1.56405791      -1.31019349
H       -0.93784854      -0.24961575      -2.00748367
O        1.69210103       1.40302507      -1.43205638
H        1.89986422       0.47885076      -1.62388582
H        2.04232934       1.57683031      -0.54929442
O       -0.99433896       1.68346302      -1.44237513
H       -1.23950098       2.42513410      -1.99092574
H       -0.02224300       1.62513010      -1.48818083
O        2.11279490      -1.23619064       1.09350782
H        2.35440781      -0.31027897       1.21858888
H        2.11902144      -1.38793095       0.13915115
O        2.28130629       1.62769024       1.33938365
H        1.32206776       1.63701956       1.50026183
H        2.66913989       2.25581829       1.94277053
O        1.93097212      -1.40967949      -1.72860164
H        0.96498635      -1.42803081      -1.85925026
H        2.30909016      -1.99415024      -2.37948198
O       -0.46112344       1.37575762       1.49271255
H       -0.68646667       1.41857521       0.55620723
H       -0.51959369       0.44353716       1.74957900
O       -2.31910346      -1.84181340       0.16831117
H       -1.68424342      -1.80951126       0.89491086
H       -2.81850717      -1.01691921       0.22930198
O       -0.36329315      -1.36241182       2.19377427
H        0.53231814      -1.42371495       1.81690078
H       -0.33550212      -1.80015834       3.04055267
O       -3.21303484       0.87416260       0.28542190
H       -2.64245222       1.15050546      -0.44210024
H       -2.77529786       1.20897476       1.07253890
30
Properties=species:S:1:pos:R:3 seed_id=wdbase_w10_00610 lineage_root_id=wdbase_w10_00610 geometry_family_id=wdbase_w10_00610 split=test_trajectory source="UW water cluster minima / TTM2.1-F" source_url=https://sites.uw.edu/wdbase/files/2019/01/W10_geoms_5.0_KCal-1wc8q03.txt source_frame=610 raw_file=raw/w10_geoms_5kcal.txt coordinate_sha256=6cbdb662f1d19612627020964f7bbb11c17a15b9ae5b5df74f19d668c9e21705 network_id=bb9ac4c48babda32f0b202bf419d7315 parent_id= trajectory_id= scan_id= rng_seed=20260913 training_descriptor_distance=0.14440305299687475 pbc="F F F"
O        1.96526331       0.54943388       1.35748270
H        1.23875550       0.81810087       1.94001366
H        1.87042516       1.08612746       0.56489161
O       -2.15508014      -0.42647559       1.37870100
H       -1.99653679       0.02916640       0.53490332
H       -3.09715039      -0.40265543       1.53106573
O        1.53095037      -0.77827329      -1.96589538
H        0.68756753      -1.15482182      -2.24684164
H        1.80259937      -1.28832859      -1.19118711
O       -1.56856901       0.74675554      -1.07220623
H       -1.54297143      -0.05282122      -1.61547109
H       -0.67624408       1.11088603      -1.11212417
O        1.20835379       1.78894251      -1.20292971
H        1.38489235       0.88458675      -1.52245209
H        1.66641146       2.37510031      -1.80075476
O        2.01968962      -2.02299005       0.54739836
H        2.03455740      -1.12558240       0.92757967
H        2.75375348      -2.49622968       0.92893484
O       -0.32690698       1.38634318       2.65289856
H       -0.96571690       0.70849865       2.40091876
H       -0.51859099       2.13944834       2.07821726
O       -1.12444729      -1.75942659      -2.30108044
H       -1.02820283      -2.16654366      -1.42010757
H       -1.54598194      -2.40445037      -2.86154577
O       -0.78829664       3.18251961       0.47091940
H        0.01324994       2.93647498      -0.00550196
H       -1.48773319       2.70915621       0.01024321
O       -0.73507565      -2.61793441       0.23792723
H       -1.20800644      -1.97907478       0.78626803
H        0.20413244      -2.50309765       0.43471220
30
Properties=species:S:1:pos:R:3 seed_id=wdbase_w10_01285 lineage_root_id=wdbase_w10_01285 geometry_family_id=wdbase_w10_01285 split=test_ood source="UW water cluster minima / TTM2.1-F" source_url=https://sites.uw.edu/wdbase/files/2019/01/W10_geoms_5.0_KCal-1wc8q03.txt source_frame=1285 raw_file=raw/w10_geoms_5kcal.txt coordinate_sha256=9f51c6fc617f10bf2aa8bc9fe2853511a5ad9af62e32e9a86e61faf445358b4d network_id=6e27b32c878a3c6dbf21df60cb60af6c parent_id= trajectory_id= scan_id= rng_seed=20260913 training_descriptor_distance=0.1491553595714368 pbc="F F F"
O        0.30712592      -1.74267694      -0.46613918
H       -0.34007609      -1.77724334      -1.17764603
H        1.00175321      -1.13926813      -0.77230869
O        2.32521236       1.88000849       0.89385857
H        2.42130744       1.23587826       1.61668652
H        2.95674717       2.57427862       1.06278672
O        2.53655040       0.01172331       2.85838002
H        1.84072482      -0.65497562       2.73480762
H        3.07624495      -0.30362150       3.57805412
O       -0.42963374       2.17199400       0.18811192
H        0.48057544       2.16482237       0.50913490
H       -0.88437426       1.45194224       0.64852108
O       -1.62389434      -1.08037183      -2.53234516
H       -1.55948699      -1.39635178      -3.43043982
H       -1.24586880      -0.18510315      -2.52604805
O        0.51257503      -1.77313515       2.35673302
H        0.60897433      -2.04975316       1.43497622
H       -0.30373204      -1.25717446       2.36015282
O       -3.62441404      -0.96086308      -0.52311455
H       -3.02999842      -1.04492041      -1.28326355
H       -4.24289664      -1.68490287      -0.59138714
O       -0.47797168       1.44646147      -2.40783440
H       -0.51669228       1.75502804      -1.48347269
H       -0.57222617       2.22006634      -2.95682417
O       -1.51228822      -0.20848200       1.14675682
H       -0.84869826      -0.68324897       0.62421288
H       -2.36060488      -0.42272827       0.73708595
O        1.98786437       0.23619774      -1.42133509
H        2.21502197       0.80071381      -0.67062221
H        1.28543269       0.70041588      -1.89164673
30
Properties=species:S:1:pos:R:3 seed_id=wdbase_w10_00960 lineage_root_id=wdbase_w10_00960 geometry_family_id=wdbase_w10_00960 split=test_ood source="UW water cluster minima / TTM2.1-F" source_url=https://sites.uw.edu/wdbase/files/2019/01/W10_geoms_5.0_KCal-1wc8q03.txt source_frame=960 raw_file=raw/w10_geoms_5kcal.txt coordinate_sha256=bb4ec4de778d3ed1f10e2c20475d309753cd135522f9f75c4bd13b2b5ff81def network_id=8414e0fe32359a5da376be1d3118f1e0 parent_id= trajectory_id= scan_id= rng_seed=20260913 training_descriptor_distance=0.14883037520793102 pbc="F F F"
O        2.07771470      -0.36884754      -1.88477155
H        2.29027249      -0.94230860      -1.13215474
H        2.83010843      -0.40045613      -2.47105653
O        2.88983803      -0.19430941       2.33197715
H        3.32286713       0.26289303       3.04690244
H        2.05286671       0.27586443       2.17432191
O       -2.19226669      -0.09331577       1.99763562
H       -1.44376682       0.49379093       2.16125371
H       -1.78893302      -0.88573282       1.61742189
O       -3.64189003       1.16762716       0.03073098
H       -4.55751608       1.22394497       0.28997638
H       -3.18598627       0.71527130       0.75949647
O       -0.69908689      -1.08324974      -2.04912878
H       -1.17245077      -0.24489706      -2.12609245
H        0.23394944      -0.86763733      -2.17223518
O        0.70225550       1.99775464      -0.90181742
H       -0.17225574       1.92849547      -1.30641178
H        1.22739006       1.28525621      -1.28651075
O        2.55081727      -2.01027220       0.34890773
H        3.04094003      -2.81179875       0.51227715
H        2.75620243      -1.40064400       1.08007743
O        0.47149636       0.82737667       1.58013060
H        0.15460135      -0.02547186       1.24783399
H        0.55818631       1.39232332       0.79834678
O       -0.34874033      -1.73712986       0.60640528
H        0.56002737      -2.05301064       0.60094478
H       -0.58271907      -1.58220022      -0.32260523
O       -1.88974165       1.50842006      -2.02490051
H       -2.53960775       1.41973001      -1.30630438
H       -2.32070373       1.99352271      -2.72368638
